c This Formular is generated by mcnf
c
c    horn? no
c    forced? no
c    mixed sat? no
c    clause length = 3
c
p cnf 20  91
10 11 11 3 1 2 10 11 11 -3 0
-16 5 0
-17 -14 -18 0
16 -6 5 0
3 7 -6 0
7 8 18 0
2 1 19 0
-11 1 -17 0
-3 0
-1 0
-2 0
-10 0
-11 0
-20 0
11 -10 -16 5 0
11 -10 -15 19 0
-1 -9 -18 0
-13 1 6 0
-2 -16 -20 0
-7 10 -20 0
2 -14 -17 0
7 -20 -1 0
3 -12 19 0
-3 -13 6 0
-13 3 -12 0
5 -7 -12 0
20 8 -16 0
-13 -6 19 0
-5 1 14 0
9 -5 18 0
-12 -17 -1 0
-20 -16 19 0
12 10 -11 0
6 -7 -2 0
13 -10 17 0
-20 8 -16 0
